<?xml version = "1.0" encoding="UTF-8" standalone="yes"?>
<CPLEXSolution version="1.2">
 <header
   problemName="IloCplex"
   solutionName="p0"
   solutionIndex="-1"
   objectiveValue="-5032048982"
   solutionTypeValue="3"
   solutionTypeString="primal"
   solutionStatusValue="127"
   solutionStatusString="integer feasible solution"
   solutionMethodString="mip"
   primalFeasible="0"
   dualFeasible="0"
   writeLevel="3"/>
 <quality
   epInt="1.0000000000000001e-05"
   epRHS="9.9999999999999995e-07"
   maxIntInfeas="0"
   maxPrimalInfeas="0"
   maxX="1"
   maxSlack="1"/>
 <variables>
  <variable name="w0_12" index="12" value="1"/>
  <variable name="w0_13" index="13" value="1"/>
  <variable name="w7_12" index="117" value="1"/>
  <variable name="w7_13" index="118" value="1"/>
  <variable name="w18_12" index="282" value="1"/>
  <variable name="w18_13" index="283" value="1"/>
  <variable name="w19_12" index="297" value="1"/>
  <variable name="w19_13" index="298" value="1"/>
  <variable name="k0" index="300" value="1"/>
  <variable name="k7" index="307" value="1"/>
  <variable name="k18" index="318" value="1"/>
  <variable name="k19" index="319" value="1"/>
  <variable name="x0_27" index="347" value="1"/>
  <variable name="x1_34" index="504" value="1"/>
  <variable name="x2_14" index="634" value="1"/>
  <variable name="x3_139" index="909" value="1"/>
  <variable name="x4_38" index="958" value="1"/>
  <variable name="x5_135" index="1205" value="1"/>
  <variable name="x6_31" index="1251" value="1"/>
  <variable name="x7_149" index="1519" value="1"/>
  <variable name="x8_22" index="1542" value="1"/>
  <variable name="x9_67" index="1737" value="1"/>
  <variable name="x10_8" index="1828" value="1"/>
  <variable name="x11_5" index="1975" value="1"/>
  <variable name="x12_71" index="2191" value="1"/>
  <variable name="x13_128" index="2398" value="1"/>
  <variable name="x14_61" index="2481" value="1"/>
  <variable name="x15_78" index="2648" value="1"/>
  <variable name="x16_47" index="2767" value="1"/>
  <variable name="x17_74" index="2944" value="1"/>
  <variable name="x18_65" index="3085" value="1"/>
  <variable name="x19_43" index="3213" value="1"/>
  <variable name="x20_42" index="3362" value="1"/>
  <variable name="x21_127" index="3597" value="1"/>
  <variable name="x22_10" index="3630" value="1"/>
  <variable name="x23_144" index="3914" value="1"/>
  <variable name="x24_146" index="4066" value="1"/>
  <variable name="x25_58" index="4128" value="1"/>
  <variable name="x26_118" index="4338" value="1"/>
  <variable name="x27_72" index="4442" value="1"/>
  <variable name="x28_133" index="4653" value="1"/>
  <variable name="x29_50" index="4720" value="1"/>
  <variable name="x30_99" index="4919" value="1"/>
  <variable name="x31_148" index="5118" value="1"/>
  <variable name="x32_35" index="5155" value="1"/>
  <variable name="x33_46" index="5316" value="1"/>
  <variable name="x34_125" index="5545" value="1"/>
  <variable name="x35_130" index="5700" value="1"/>
  <variable name="x36_1" index="5721" value="1"/>
  <variable name="x37_28" index="5898" value="1"/>
  <variable name="x38_52" index="6072" value="1"/>
  <variable name="x39_140" index="6310" value="1"/>
  <variable name="x40_101" index="6421" value="1"/>
  <variable name="x41_55" index="6525" value="1"/>
  <variable name="x42_138" index="6758" value="1"/>
  <variable name="x43_84" index="6854" value="1"/>
  <variable name="x44_62" index="6982" value="1"/>
  <variable name="x45_141" index="7211" value="1"/>
  <variable name="x46_21" index="7241" value="1"/>
  <variable name="x47_131" index="7501" value="1"/>
  <variable name="x48_66" index="7586" value="1"/>
  <variable name="x49_137" index="7807" value="1"/>
  <variable name="x50_122" index="7942" value="1"/>
  <variable name="x51_112" index="8082" value="1"/>
  <variable name="x52_147" index="8267" value="1"/>
  <variable name="x53_115" index="8385" value="1"/>
  <variable name="x54_134" index="8554" value="1"/>
  <variable name="x55_117" index="8687" value="1"/>
  <variable name="x56_40" index="8760" value="1"/>
  <variable name="x57_113" index="8983" value="1"/>
  <variable name="x58_57" index="9077" value="1"/>
  <variable name="x59_15" index="9185" value="1"/>
  <variable name="x60_102" index="9422" value="1"/>
  <variable name="x61_116" index="9586" value="1"/>
  <variable name="x62_44" index="9664" value="1"/>
  <variable name="x63_142" index="9912" value="1"/>
  <variable name="x64_63" index="9983" value="1"/>
  <variable name="x65_126" index="10196" value="1"/>
  <variable name="x66_54" index="10274" value="1"/>
  <variable name="x67_53" index="10423" value="1"/>
  <variable name="x68_3" index="10523" value="1"/>
  <variable name="x69_136" index="10806" value="1"/>
  <variable name="x70_89" index="10909" value="1"/>
  <variable name="x71_83" index="11053" value="1"/>
  <variable name="x72_88" index="11208" value="1"/>
  <variable name="x73_23" index="11293" value="1"/>
  <variable name="x74_143" index="11563" value="1"/>
  <variable name="x75_12" index="11582" value="1"/>
  <variable name="x76_85" index="11805" value="1"/>
  <variable name="x77_81" index="11951" value="1"/>
  <variable name="x78_100" index="12120" value="1"/>
  <variable name="x79_59" index="12229" value="1"/>
  <variable name="x80_124" index="12444" value="1"/>
  <variable name="x81_114" index="12584" value="1"/>
  <variable name="x82_111" index="12731" value="1"/>
  <variable name="x83_105" index="12875" value="1"/>
  <variable name="x84_97" index="13017" value="1"/>
  <variable name="x85_94" index="13164" value="1"/>
  <variable name="x86_68" index="13288" value="1"/>
  <variable name="x87_95" index="13465" value="1"/>
  <variable name="x88_60" index="13580" value="1"/>
  <variable name="x89_86" index="13756" value="1"/>
  <variable name="x90_132" index="13952" value="1"/>
  <variable name="x91_90" index="14060" value="1"/>
  <variable name="x92_36" index="14156" value="1"/>
  <variable name="x93_120" index="14390" value="1"/>
  <variable name="x94_9" index="14429" value="1"/>
  <variable name="x95_110" index="14680" value="1"/>
  <variable name="x96_56" index="14776" value="1"/>
  <variable name="x97_33" index="14903" value="1"/>
  <variable name="x98_93" index="15113" value="1"/>
  <variable name="x99_0" index="15170" value="1"/>
  <variable name="x100_69" index="15389" value="1"/>
  <variable name="x101_41" index="15511" value="1"/>
  <variable name="x102_76" index="15696" value="1"/>
  <variable name="x103_108" index="15878" value="1"/>
  <variable name="x104_73" index="15993" value="1"/>
  <variable name="x105_4" index="16074" value="1"/>
  <variable name="x106_64" index="16284" value="1"/>
  <variable name="x107_2" index="16372" value="1"/>
  <variable name="x108_13" index="16533" value="1"/>
  <variable name="x109_32" index="16702" value="1"/>
  <variable name="x110_6" index="16826" value="1"/>
  <variable name="x111_25" index="16995" value="1"/>
  <variable name="x112_82" index="17202" value="1"/>
  <variable name="x113_91" index="17361" value="1"/>
  <variable name="x114_104" index="17524" value="1"/>
  <variable name="x115_129" index="17699" value="1"/>
  <variable name="x116_106" index="17826" value="1"/>
  <variable name="x117_80" index="17950" value="1"/>
  <variable name="x118_145" index="18165" value="1"/>
  <variable name="x119_17" index="18187" value="1"/>
  <variable name="x120_16" index="18336" value="1"/>
  <variable name="x121_107" index="18577" value="1"/>
  <variable name="x122_92" index="18712" value="1"/>
  <variable name="x123_45" index="18815" value="1"/>
  <variable name="x124_121" index="19041" value="1"/>
  <variable name="x125_77" index="19147" value="1"/>
  <variable name="x126_51" index="19271" value="1"/>
  <variable name="x127_24" index="19394" value="1"/>
  <variable name="x128_119" index="19639" value="1"/>
  <variable name="x129_75" index="19745" value="1"/>
  <variable name="x130_26" index="19846" value="1"/>
  <variable name="x131_37" index="20007" value="1"/>
  <variable name="x132_29" index="20149" value="1"/>
  <variable name="x133_39" index="20309" value="1"/>
  <variable name="x134_11" index="20431" value="1"/>
  <variable name="x135_49" index="20619" value="1"/>
  <variable name="x136_70" index="20790" value="1"/>
  <variable name="x137_123" index="20993" value="1"/>
  <variable name="x138_18" index="21038" value="1"/>
  <variable name="x139_96" index="21266" value="1"/>
  <variable name="x140_87" index="21407" value="1"/>
  <variable name="x141_103" index="21573" value="1"/>
  <variable name="x142_20" index="21640" value="1"/>
  <variable name="x143_79" index="21849" value="1"/>
  <variable name="x144_30" index="21950" value="1"/>
  <variable name="x145_109" index="22179" value="1"/>
  <variable name="x146_19" index="22239" value="1"/>
  <variable name="x147_48" index="22418" value="1"/>
  <variable name="x148_98" index="22618" value="1"/>
  <variable name="x149_7" index="22677" value="1"/>
  <variable name="u12" index="22832" value="1"/>
  <variable name="u13" index="22833" value="1"/>
 </variables>
</CPLEXSolution>
